SECTION Graph
Nodes 125
Edges 750
E 2 1 101
E 3 1 209
E 3 2 209
E 4 1 110
E 4 2 108
E 4 3 203
E 5 1 103
E 5 2 105
E 5 3 204
E 5 4 102
E 6 1 101
E 7 2 104
E 7 6 107
E 8 3 210
E 8 6 103
E 8 7 101
E 9 4 107
E 9 6 102
E 9 7 105
E 9 8 102
E 10 5 108
E 10 6 102
E 10 7 104
E 10 8 101
E 10 9 102
E 11 1 105
E 11 6 101
E 12 2 210
E 12 7 202
E 12 11 203
E 13 3 207
E 13 8 105
E 13 11 110
E 13 12 207
E 14 4 105
E 14 9 104
E 14 11 103
E 14 12 206
E 14 13 109
E 15 5 110
E 15 10 106
E 15 11 102
E 15 12 204
E 15 13 108
E 15 14 107
E 16 1 108
E 16 6 109
E 16 11 109
E 17 2 109
E 17 7 107
E 17 12 206
E 17 16 104
E 18 3 207
E 18 8 105
E 18 13 109
E 18 16 108
E 18 17 102
E 19 4 108
E 19 9 101
E 19 14 109
E 19 16 101
E 19 17 110
E 19 18 110
E 20 5 206
E 20 10 201
E 20 15 210
E 20 16 205
E 20 17 210
E 20 18 204
E 20 19 202
E 21 1 109
E 21 6 101
E 21 11 102
E 21 16 109
E 22 2 105
E 22 7 104
E 22 12 207
E 22 17 107
E 22 21 105
E 23 3 205
E 23 8 105
E 23 13 110
E 23 18 105
E 23 21 105
E 23 22 105
E 24 4 107
E 24 9 104
E 24 14 109
E 24 19 101
E 24 21 109
E 24 22 104
E 24 23 102
E 25 5 106
E 25 10 101
E 25 15 107
E 25 20 207
E 25 21 101
E 25 22 104
E 25 23 105
E 25 24 103
E 26 1 103
E 27 2 104
E 27 26 109
E 28 3 207
E 28 26 106
E 28 27 104
E 29 4 101
E 29 26 106
E 29 27 108
E 29 28 102
E 30 5 109
E 30 26 106
E 30 27 101
E 30 28 105
E 30 29 110
E 31 6 202
E 31 26 210
E 32 7 106
E 32 27 110
E 32 31 209
E 33 8 106
E 33 28 109
E 33 31 203
E 33 32 110
E 34 9 101
E 34 29 104
E 34 31 205
E 34 32 101
E 34 33 105
E 35 10 101
E 35 30 104
E 35 31 209
E 35 32 104
E 35 33 101
E 35 34 102
E 36 11 106
E 36 26 110
E 36 31 204
E 37 12 204
E 37 27 105
E 37 32 103
E 37 36 110
E 38 13 107
E 38 28 106
E 38 33 110
E 38 36 102
E 38 37 105
E 39 14 104
E 39 29 101
E 39 34 101
E 39 36 106
E 39 37 103
E 39 38 106
E 40 15 101
E 40 30 101
E 40 35 106
E 40 36 107
E 40 37 109
E 40 38 105
E 40 39 103
E 41 16 101
E 41 26 103
E 41 31 206
E 41 36 101
E 42 17 109
E 42 27 101
E 42 32 108
E 42 37 107
E 42 41 102
E 43 18 108
E 43 28 102
E 43 33 107
E 43 38 102
E 43 41 105
E 43 42 101
E 44 19 101
E 44 29 107
E 44 34 107
E 44 39 102
E 44 41 103
E 44 42 106
E 44 43 104
E 45 20 208
E 45 30 108
E 45 35 103
E 45 40 103
E 45 41 107
E 45 42 109
E 45 43 101
E 45 44 105
E 46 21 102
E 46 26 109
E 46 31 208
E 46 36 106
E 46 41 102
E 47 22 107
E 47 27 105
E 47 32 106
E 47 37 101
E 47 42 108
E 47 46 103
E 48 23 102
E 48 28 109
E 48 33 110
E 48 38 103
E 48 43 105
E 48 46 103
E 48 47 104
E 49 24 202
E 49 29 210
E 49 34 203
E 49 39 202
E 49 44 204
E 49 46 209
E 49 47 201
E 49 48 210
E 50 25 109
E 50 30 105
E 50 35 101
E 50 40 101
E 50 45 101
E 50 46 109
E 50 47 103
E 50 48 110
E 50 49 201
E 51 1 101
E 51 26 109
E 52 2 208
E 52 27 207
E 52 51 208
E 53 3 204
E 53 28 107
E 53 51 106
E 53 52 208
E 54 4 105
E 54 29 106
E 54 51 108
E 54 52 202
E 54 53 103
E 55 5 107
E 55 30 102
E 55 51 102
E 55 52 210
E 55 53 105
E 55 54 103
E 56 6 104
E 56 31 208
E 56 51 106
E 57 7 107
E 57 32 109
E 57 52 209
E 57 56 101
E 58 8 105
E 58 33 103
E 58 53 104
E 58 56 108
E 58 57 105
E 59 9 101
E 59 34 109
E 59 54 109
E 59 56 104
E 59 57 105
E 59 58 101
E 60 10 108
E 60 35 104
E 60 55 105
E 60 56 108
E 60 57 110
E 60 58 104
E 60 59 109
E 61 11 101
E 61 36 101
E 61 51 105
E 61 56 108
E 62 12 205
E 62 37 108
E 62 52 202
E 62 57 104
E 62 61 106
E 63 13 109
E 63 38 106
E 63 53 101
E 63 58 107
E 63 61 109
E 63 62 104
E 64 14 109
E 64 39 109
E 64 54 104
E 64 59 107
E 64 61 110
E 64 62 109
E 64 63 103
E 65 15 205
E 65 40 206
E 65 55 204
E 65 60 208
E 65 61 202
E 65 62 210
E 65 63 201
E 65 64 208
E 66 16 105
E 66 41 104
E 66 51 108
E 66 56 110
E 66 61 110
E 67 17 109
E 67 42 110
E 67 52 203
E 67 57 108
E 67 62 104
E 67 66 108
E 68 18 206
E 68 43 204
E 68 53 201
E 68 58 205
E 68 63 210
E 68 66 204
E 68 67 202
E 69 19 108
E 69 44 101
E 69 54 109
E 69 59 102
E 69 64 104
E 69 66 104
E 69 67 104
E 69 68 204
E 70 20 202
E 70 45 109
E 70 55 102
E 70 60 104
E 70 65 203
E 70 66 104
E 70 67 110
E 70 68 201
E 70 69 106
E 71 21 105
E 71 46 101
E 71 51 103
E 71 56 103
E 71 61 103
E 71 66 109
E 72 22 104
E 72 47 104
E 72 52 201
E 72 57 101
E 72 62 102
E 72 67 110
E 72 71 104
E 73 23 102
E 73 48 101
E 73 53 107
E 73 58 103
E 73 63 106
E 73 68 203
E 73 71 108
E 73 72 109
E 74 24 110
E 74 49 205
E 74 54 106
E 74 59 103
E 74 64 103
E 74 69 106
E 74 71 109
E 74 72 110
E 74 73 101
E 75 25 109
E 75 50 106
E 75 55 107
E 75 60 102
E 75 65 205
E 75 70 107
E 75 71 104
E 75 72 105
E 75 73 101
E 75 74 102
E 76 1 106
E 76 26 107
E 76 51 105
E 77 2 109
E 77 27 110
E 77 52 206
E 77 76 108
E 78 3 209
E 78 28 103
E 78 53 106
E 78 76 104
E 78 77 108
E 79 4 104
E 79 29 104
E 79 54 103
E 79 76 103
E 79 77 105
E 79 78 104
E 80 5 102
E 80 30 104
E 80 55 110
E 80 76 110
E 80 77 105
E 80 78 103
E 80 79 104
E 81 6 108
E 81 31 209
E 81 56 110
E 81 76 101
E 82 7 105
E 82 32 110
E 82 57 109
E 82 77 110
E 82 81 108
E 83 8 103
E 83 33 106
E 83 58 101
E 83 78 105
E 83 81 104
E 83 82 110
E 84 9 208
E 84 34 201
E 84 59 203
E 84 79 209
E 84 81 205
E 84 82 210
E 84 83 203
E 85 10 108
E 85 35 102
E 85 60 110
E 85 80 106
E 85 81 104
E 85 82 105
E 85 83 108
E 85 84 203
E 86 11 104
E 86 36 103
E 86 61 102
E 86 76 104
E 86 81 103
E 87 12 205
E 87 37 103
E 87 62 105
E 87 77 104
E 87 82 109
E 87 86 107
E 88 13 108
E 88 38 101
E 88 63 101
E 88 78 106
E 88 83 103
E 88 86 106
E 88 87 106
E 89 14 101
E 89 39 102
E 89 64 103
E 89 79 105
E 89 84 206
E 89 86 108
E 89 87 103
E 89 88 102
E 90 15 101
E 90 40 110
E 90 65 203
E 90 80 101
E 90 85 108
E 90 86 106
E 90 87 101
E 90 88 109
E 90 89 107
E 91 16 109
E 91 41 110
E 91 66 103
E 91 76 102
E 91 81 102
E 91 86 104
E 92 17 101
E 92 42 109
E 92 67 104
E 92 77 102
E 92 82 102
E 92 87 103
E 92 91 110
E 93 18 104
E 93 43 105
E 93 68 208
E 93 78 107
E 93 83 104
E 93 88 102
E 93 91 102
E 93 92 108
E 94 19 105
E 94 44 101
E 94 69 106
E 94 79 105
E 94 84 210
E 94 89 101
E 94 91 106
E 94 92 108
E 94 93 109
E 95 20 204
E 95 45 106
E 95 70 106
E 95 80 102
E 95 85 101
E 95 90 103
E 95 91 103
E 95 92 105
E 95 93 104
E 95 94 101
E 96 21 208
E 96 46 206
E 96 71 209
E 96 76 208
E 96 81 202
E 96 86 209
E 96 91 210
E 97 22 104
E 97 47 103
E 97 72 107
E 97 77 108
E 97 82 110
E 97 87 108
E 97 92 102
E 97 96 207
E 98 23 105
E 98 48 108
E 98 73 110
E 98 78 102
E 98 83 109
E 98 88 101
E 98 93 108
E 98 96 203
E 98 97 109
E 99 24 102
E 99 49 203
E 99 74 101
E 99 79 105
E 99 84 206
E 99 89 104
E 99 94 105
E 99 96 204
E 99 97 109
E 99 98 105
E 100 25 102
E 100 50 107
E 100 75 101
E 100 80 108
E 100 85 110
E 100 90 105
E 100 95 104
E 100 96 208
E 100 97 107
E 100 98 101
E 100 99 107
E 101 1 103
E 101 26 102
E 101 51 101
E 101 76 105
E 102 2 101
E 102 27 108
E 102 52 207
E 102 77 105
E 102 101 104
E 103 3 201
E 103 28 110
E 103 53 107
E 103 78 103
E 103 101 101
E 103 102 106
E 104 4 106
E 104 29 101
E 104 54 103
E 104 79 108
E 104 101 105
E 104 102 110
E 104 103 105
E 105 5 206
E 105 30 203
E 105 55 210
E 105 80 206
E 105 101 202
E 105 102 201
E 105 103 209
E 105 104 209
E 106 6 104
E 106 31 205
E 106 56 108
E 106 81 104
E 106 101 107
E 107 7 107
E 107 32 106
E 107 57 101
E 107 82 110
E 107 102 110
E 107 106 108
E 108 8 110
E 108 33 105
E 108 58 103
E 108 83 104
E 108 103 102
E 108 106 109
E 108 107 103
E 109 9 102
E 109 34 102
E 109 59 107
E 109 84 201
E 109 104 106
E 109 106 106
E 109 107 108
E 109 108 101
E 110 10 110
E 110 35 108
E 110 60 104
E 110 85 102
E 110 105 208
E 110 106 103
E 110 107 102
E 110 108 107
E 110 109 106
E 111 11 106
E 111 36 104
E 111 61 101
E 111 86 101
E 111 101 108
E 111 106 104
E 112 12 210
E 112 37 107
E 112 62 101
E 112 87 102
E 112 102 107
E 112 107 109
E 112 111 109
E 113 13 209
E 113 38 205
E 113 63 210
E 113 88 209
E 113 103 209
E 113 108 210
E 113 111 203
E 113 112 206
E 114 14 107
E 114 39 108
E 114 64 106
E 114 89 104
E 114 104 104
E 114 109 103
E 114 111 101
E 114 112 108
E 114 113 201
E 115 15 107
E 115 40 109
E 115 65 206
E 115 90 109
E 115 105 210
E 115 110 107
E 115 111 105
E 115 112 102
E 115 113 201
E 115 114 106
E 116 16 106
E 116 41 103
E 116 66 105
E 116 91 108
E 116 101 107
E 116 106 102
E 116 111 102
E 117 17 205
E 117 42 206
E 117 67 207
E 117 92 201
E 117 102 203
E 117 107 204
E 117 112 207
E 117 116 210
E 118 18 101
E 118 43 106
E 118 68 209
E 118 93 107
E 118 103 110
E 118 108 104
E 118 113 203
E 118 116 109
E 118 117 204
E 119 19 102
E 119 44 110
E 119 69 109
E 119 94 104
E 119 104 106
E 119 109 104
E 119 114 106
E 119 116 104
E 119 117 207
E 119 118 106
E 120 20 204
E 120 45 109
E 120 70 109
E 120 95 108
E 120 105 208
E 120 110 106
E 120 115 102
E 120 116 101
E 120 117 208
E 120 118 101
E 120 119 101
E 121 21 110
E 121 46 101
E 121 71 110
E 121 96 208
E 121 101 109
E 121 106 103
E 121 111 109
E 121 116 109
E 122 22 107
E 122 47 105
E 122 72 110
E 122 97 106
E 122 102 103
E 122 107 108
E 122 112 102
E 122 117 208
E 122 121 104
E 123 23 105
E 123 48 105
E 123 73 107
E 123 98 109
E 123 103 110
E 123 108 104
E 123 113 207
E 123 118 102
E 123 121 102
E 123 122 104
E 124 24 105
E 124 49 208
E 124 74 105
E 124 99 104
E 124 104 104
E 124 109 102
E 124 114 107
E 124 119 102
E 124 121 102
E 124 122 105
E 124 123 108
E 125 25 104
E 125 50 108
E 125 75 102
E 125 100 104
E 125 105 207
E 125 110 110
E 125 115 104
E 125 120 106
E 125 121 103
E 125 122 106
E 125 123 103
E 125 124 106
END

SECTION Terminals
Terminals 13
T 3
T 12
T 20
T 31
T 49
T 52
T 65
T 68
T 84
T 96
T 105
T 113
T 117
END

EOF
